Maximize
  30 x_small_trucks + 50 x_large_trucks
Subject To
  c1: 2 x_small_trucks + 4 x_large_trucks <= 30
  c2: x_small_trucks >= 10
  c3: x_large_trucks >= 3
  c4: x_small_trucks - 2.0 x_large_trucks >= 0
End